0 3857
1 3857
2 3857
3 3764
4 3764
5 3764
6 3717
7 3601
8 3576
9 3576
10 3388
11 3388
12 3388
13 3370
14 3370
15 3319
16 3319
17 3286
18 3286
19 3277
20 3277
21 3271
22 3229
23 3206
24 3206
25 3206
26 3206
27 3206
28 3183
29 3183
30 3183
31 3183
32 3183
33 3183
34 3182
35 3180
36 3180
37 3180
38 3180
39 3180
40 3169
41 3169
42 3169
43 3169
44 3154
45 3154
46 3154
47 3154
48 3154
49 3154
50 3128
51 3128
52 3128
53 3126
54 3126
55 3126
56 3126
57 3126
58 3117
59 3117
60 3104
61 3104
62 3104
63 3104
64 3104
65 3064
66 3064
67 3064
68 3064
69 3064
70 3064
71 3064
72 3064
73 3061
74 3061
75 3061
76 3061
77 3061
78 3061
79 3061
80 3052
81 3052
82 3052
83 3052
84 3052
85 2988
86 2988
87 2960
88 2960
89 2960
90 2960
91 2960
92 2960
93 2960
94 2936
95 2936
96 2936
97 2936
98 2936
99 2936
100 2936
101 2936
102 2936
103 2936
104 2936
105 2936
106 2936
107 2936
108 2936
109 2936
110 2936
111 2936
112 2936
113 2936
114 2936
115 2936
116 2935
117 2935
118 2935
119 2899
120 2899
121 2899
122 2899
123 2899
124 2899
125 2899
126 2899
127 2899
128 2899
129 2899
130 2899
131 2899
132 2899
133 2899
134 2899
135 2899
136 2899
137 2899
138 2899
139 2899
140 2899
141 2899
142 2899
143 2899
144 2897
145 2892
146 2892
147 2892
148 2892
149 2892
150 2892
151 2892
152 2892
153 2892
154 2892
155 2892
156 2892
157 2892
158 2891
159 2882
160 2882
161 2882
162 2882
163 2882
164 2882
165 2882
166 2882
167 2882
168 2882
169 2882
170 2882
171 2882
172 2882
173 2882
174 2882
175 2882
176 2882
177 2882
178 2882
179 2882
180 2882
181 2882
182 2882
183 2882
184 2882
185 2882
186 2882
187 2882
188 2882
189 2882
190 2882
191 2882
192 2882
193 2882
194 2882
195 2882
196 2882
197 2877
198 2877
199 2877
200 2877
201 2877
202 2819
203 2819
204 2819
205 2819
206 2819
207 2819
208 2819
209 2819
210 2819
211 2819
212 2819
213 2819
214 2819
215 2819
216 2819
217 2819
218 2819
219 2807
220 2807
221 2807
222 2807
223 2807
224 2807
225 2807
226 2807
227 2807
228 2807
229 2807
230 2807
231 2784
232 2784
233 2784
234 2784
235 2784
236 2784
237 2784
238 2784
239 2784
240 2784
241 2784
242 2762
243 2762
244 2762
245 2762
246 2762
247 2762
248 2762
249 2762
250 2762
251 2762
252 2762
253 2762
254 2762
255 2762
256 2762
257 2762
258 2762
259 2762
260 2762
261 2762
262 2762
263 2762
264 2762
265 2762
266 2762
267 2762
268 2762
269 2762
270 2762
271 2762
272 2762
273 2762
274 2762
275 2762
276 2762
277 2762
278 2762
279 2761
280 2761
281 2761
282 2761
283 2761
284 2761
285 2761
286 2731
287 2731
288 2731
289 2731
290 2731
291 2731
292 2730
293 2730
294 2730
295 2730
296 2730
297 2730
298 2730
299 2730
300 2730
301 2730
302 2730
303 2730
304 2730
305 2730
306 2730
307 2730
308 2730
309 2730
310 2730
311 2730
312 2730
313 2730
314 2730
315 2730
316 2730
317 2730
318 2730
319 2730
320 2728
321 2728
322 2728
323 2728
324 2728
325 2728
326 2728
327 2728
328 2728
329 2728
330 2728
331 2728
332 2717
333 2717
334 2717
335 2717
336 2717
337 2717
338 2717
339 2717
340 2717
341 2717
342 2717
343 2717
344 2717
345 2717
346 2717
347 2717
348 2717
349 2717
350 2714
351 2714
352 2710
353 2710
354 2710
355 2710
356 2710
357 2710
358 2710
359 2710
360 2710
361 2710
362 2710
363 2710
364 2710
365 2710
366 2710
367 2710
368 2710
369 2710
370 2710
371 2710
372 2710
373 2710
374 2710
375 2710
376 2710
377 2710
378 2710
379 2710
380 2710
381 2710
382 2710
383 2710
384 2710
385 2710
386 2697
387 2697
388 2697
389 2697
390 2697
391 2697
392 2697
393 2697
394 2697
395 2697
396 2697
397 2697
398 2697
399 2697
400 2697
401 2697
402 2697
403 2697
404 2697
405 2697
406 2697
407 2697
408 2697
409 2697
410 2697
411 2697
412 2697
413 2697
414 2693
415 2693
416 2693
417 2693
418 2693
419 2693
420 2693
421 2693
422 2693
423 2693
424 2693
425 2693
426 2693
427 2693
428 2693
429 2693
430 2693
431 2693
432 2693
433 2693
434 2693
435 2693
436 2689
437 2689
438 2689
439 2689
440 2689
441 2689
442 2689
443 2689
444 2689
445 2689
446 2689
447 2689
448 2674
449 2674
450 2674
451 2674
452 2674
453 2674
454 2674
455 2674
456 2674
457 2674
458 2674
459 2674
460 2674
461 2674
462 2674
463 2674
464 2674
465 2674
466 2674
467 2674
468 2674
469 2674
470 2674
471 2674
472 2674
473 2674
474 2674
475 2674
476 2674
477 2674
478 2674
479 2674
480 2674
481 2674
482 2674
483 2674
484 2674
485 2674
486 2674
487 2674
488 2674
489 2674
490 2674
491 2674
492 2674
493 2674
494 2674
495 2674
496 2674
497 2674
498 2674
499 2674
500 2674
501 2674
502 2674
503 2674
504 2674
505 2674
506 2674
507 2674
508 2674
509 2674
510 2674
511 2674
512 2674
513 2674
514 2674
515 2674
516 2674
517 2674
518 2665
519 2665
520 2665
521 2665
522 2665
523 2665
524 2665
525 2665
526 2665
527 2665
528 2665
529 2665
530 2665
531 2665
532 2665
533 2648
534 2648
535 2645
536 2637
537 2637
538 2637
539 2637
540 2637
541 2637
542 2637
543 2637
544 2637
545 2637
546 2637
547 2637
548 2637
549 2637
550 2637
551 2637
552 2637
553 2637
554 2637
555 2637
556 2637
557 2637
558 2637
559 2637
560 2637
561 2637
562 2637
563 2637
564 2637
565 2637
566 2637
567 2637
568 2637
569 2637
570 2637
571 2637
572 2637
573 2637
574 2637
575 2637
576 2637
577 2637
578 2637
579 2636
580 2636
581 2636
582 2636
583 2636
584 2636
585 2636
586 2636
587 2636
588 2636
589 2636
590 2636
591 2636
592 2636
593 2636
594 2636
595 2636
596 2636
597 2636
598 2636
599 2636
600 2636
601 2636
602 2636
603 2636
604 2636
605 2636
606 2636
607 2628
608 2628
609 2628
610 2628
611 2628
612 2628
613 2628
614 2628
615 2628
616 2626
617 2626
618 2626
619 2626
620 2626
621 2626
622 2626
623 2626
624 2626
625 2626
626 2626
627 2626
628 2626
629 2626
630 2626
631 2624
632 2624
633 2624
634 2624
635 2624
636 2624
637 2624
638 2621
639 2621
640 2621
641 2621
642 2621
643 2621
644 2621
645 2621
646 2621
647 2621
648 2621
649 2621
650 2621
651 2621
652 2621
653 2621
654 2621
655 2621
656 2621
657 2621
658 2621
659 2621
660 2621
661 2621
662 2621
663 2621
664 2621
665 2621
666 2621
667 2621
668 2621
669 2621
670 2621
671 2621
672 2621
673 2621
674 2621
675 2621
676 2621
677 2621
678 2621
679 2621
680 2621
681 2621
682 2621
683 2621
684 2621
685 2621
686 2621
687 2621
688 2621
689 2621
690 2621
691 2621
692 2621
693 2621
694 2621
695 2621
696 2621
697 2621
698 2621
699 2621
700 2621
701 2621
702 2621
703 2621
704 2621
705 2621
706 2621
707 2621
708 2621
709 2621
710 2621
711 2621
712 2621
713 2612
714 2612
715 2612
716 2612
717 2612
718 2612
719 2612
720 2612
721 2612
722 2612
723 2612
724 2612
725 2612
726 2612
727 2612
728 2612
729 2612
730 2612
731 2612
732 2612
733 2612
734 2612
735 2612
736 2612
737 2612
738 2612
739 2612
740 2612
741 2612
742 2612
743 2612
744 2612
745 2612
746 2612
747 2612
748 2612
749 2612
750 2612
751 2612
752 2612
753 2612
754 2612
755 2612
756 2612
757 2612
758 2612
759 2612
760 2612
761 2612
762 2612
763 2612
764 2612
765 2612
766 2612
767 2610
768 2610
769 2610
770 2610
771 2610
772 2610
773 2610
774 2610
775 2608
776 2608
777 2608
778 2608
779 2608
780 2608
781 2608
782 2608
783 2608
784 2608
785 2608
786 2608
787 2608
788 2608
789 2608
790 2608
791 2608
792 2608
793 2608
794 2607
795 2607
796 2607
797 2607
798 2607
799 2607
800 2607
801 2607
802 2607
803 2607
804 2607
805 2607
806 2607
807 2607
808 2607
809 2607
810 2607
811 2607
812 2607
813 2607
814 2607
815 2607
816 2607
817 2600
818 2600
819 2600
820 2600
821 2600
822 2600
823 2600
824 2600
825 2600
826 2600
827 2600
828 2600
829 2600
830 2600
831 2600
832 2600
833 2600
834 2600
835 2600
836 2600
837 2600
838 2600
839 2600
840 2600
841 2600
842 2600
843 2600
844 2600
845 2600
846 2600
847 2600
848 2600
849 2600
850 2600
851 2600
852 2600
853 2600
854 2600
855 2600
856 2600
857 2600
858 2600
859 2600
860 2600
861 2600
862 2600
863 2600
864 2600
865 2600
866 2600
867 2599
868 2599
869 2599
870 2599
871 2599
872 2599
873 2599
874 2599
875 2598
876 2598
877 2598
878 2598
879 2598
880 2598
881 2598
882 2598
883 2598
884 2598
885 2598
886 2598
887 2598
888 2598
889 2597
890 2597
891 2597
892 2597
893 2597
894 2597
895 2597
896 2597
897 2597
898 2597
899 2597
900 2597
901 2597
902 2597
903 2597
904 2586
905 2586
906 2586
907 2586
908 2586
909 2586
910 2586
911 2586
912 2586
913 2586
914 2586
915 2586
916 2586
917 2579
918 2579
919 2579
920 2579
921 2579
922 2579
923 2579
924 2579
925 2579
926 2579
927 2579
928 2579
929 2579
930 2579
931 2579
932 2579
933 2579
934 2579
935 2579
936 2579
937 2579
938 2579
939 2579
940 2579
941 2579
942 2579
943 2579
944 2579
945 2579
946 2579
947 2579
948 2579
949 2579
950 2579
951 2579
952 2579
953 2579
954 2579
955 2579
956 2579
957 2579
958 2579
959 2579
960 2579
961 2579
962 2579
963 2579
964 2579
965 2579
966 2579
967 2579
968 2579
969 2579
970 2579
971 2579
972 2579
973 2579
974 2579
975 2579
976 2579
977 2579
978 2579
979 2579
980 2579
981 2579
982 2579
983 2579
984 2579
985 2579
986 2579
987 2579
988 2579
989 2579
990 2579
991 2579
992 2579
993 2577
994 2577
995 2577
996 2577
997 2577
998 2577
999 2577
Best: [[19,5,32,20,27,10,3,29,24,11,14,2,9,21],
       [17,36,26,25],
       [8,28,33,16,31,12,13,23,22,34,6,4],
       [30,37,7,18,35,15]], fitness: 2577
